set PROD:= ket bar chi;
set ING:= suc zuc oli ace ing;
set QUAL:= dol aci uma;

param: Prezzo CostoBase Q_Prodotto :=
ket	   2	  	0.4	    3100	   	
bar    2.2		0.8		2300		
chi	   3		1.2		2400;

param CostoIng:=
suc	0.3
zuc 0.1
oli 1
ace 0.2
ing 2.1;

param Carat: suc zuc oli ace ing:=
dol	20	100	5	0	30
aci	30	0	20	100	0
uma 10	0	45	0	99;

param MinC: ket bar chi:=
dol	30	20	15
aci	20	15	30
uma	20	30	40;

param MaxC: ket bar chi:=
dol 50	30	35
aci	40	25	45
uma	100	100	100;